c User generated cnf file
p cnf 15 45
9 3 -3 0 
3 5 -12 0 
10 -8 12 0 
2 -3 6 0 
12 -12 7 0 
8 -13 15 0 
10 -9 13 0 
4 5 -2 0 
2 2 -10 0 
8 7 -6 0 
14 -5 9 0 
4 -5 15 0 
14 -11 14 0 
3 2 -14 0 
14 -11 2 0 
11 2 -6 0 
1 2 -14 0 
2 8 -6 0 
6 -14 8 0 
8 -13 10 0 
8 15 -12 0 
3 -3 6 0 
5 14 -6 0 
2 8 -6 0 
8 13 -7 0 
8 5 -3 0 
4 9 -13 0 
13 -14 11 0 
7 -6 13 0 
10 8 -4 0 
1 -9 9 0 
15 -14 15 0 
3 7 -7 0 
5 -5 3 0 
12 7 -1 0 
4 12 -15 0 
9 -5 3 0 
14 14 -1 0 
9 -1 11 0 
1 6 -6 0 
10 -12 4 0 
10 -14 3 0 
15 3 -3 0 
8 -15 4 0 
3 -3 13 0 
